%%% static parameters %%%
timespan = 1;
Fact = [4];
Distr1 = [15];
Distr2 = [30];
Clients_N = [300];
Demand_W = [15];
Lt0 = [4];
Lt1 = [4];
SS_ = [0.85];
DS_D = [8];
K = [200];
MA = [500];
%%% dynamic parameters %%%
lost_ratio_sales_ret_th = 0.833951615949946;
lost_ratio_sales_ret_w = 68;
lost_ratio_sales_dis_th = 0.11252778309003553;
lost_ratio_sales_dis_w = 83;
lost_ratio_sales_fac_th = 0.30345677032591856;
lost_ratio_sales_fac_w = 91;
stock_customer_MA_mean_relative_th = 0.8063342132816609;
stock_customer_MA_mean_relative_w = 47;
stock_distributor_MA_mean_relative_th = 0.2868062857002538;
stock_distributor_MA_mean_relative_w = 35;
stock_retailer_MA_mean_relative_th = 0.7422609337219295;
stock_retailer_MA_mean_relative_w = 56;
stock_factory_MA_mean_relative_th = 0.011041914357666771;
stock_factory_MA_mean_relative_w = 28;
